56 657
7 9 
7 9 
9 14 
9 14 
9 14 
5 14 
5 14 
5 14 
14 8 
14 8 
13 15 
13 15 
11 13 
11 13 
11 13 
18 11 
18 11 
19 19 
19 19 
19 19 
19 19 
19 19 
18 48 
18 48 
18 48 
18 48 
17 15 
17 15 
17 15 
17 15 
17 15 
17 15 
6 16 
6 16 
9 5 
8 14 
8 14 
8 14 
3 13 
3 13 
3 13 
8 12 
8 12 
18 6 
18 6 
18 6 
10 19 
10 19 
8 34 
8 34 
15 14 
15 14 
15 14 
15 14 
13 15 
13 15 
